c 200_4_checker_6cl.cnf
c
c field = 200
c formula set type = 4_checker_6cl
c
p cnf 6 12
392 
394 
396 
400 
-390 
-402 
393 
395 
397 
401 
-391 
-403 
394 
396 
400 
402 
-392 
-404 
395 
397 
401 
403 
-393 
-405 
396 
400 
402 
404 
-394 
-406 
397 
401 
403 
405 
-395 
-407 
400 
402 
404 
406 
-396 
-408 
401 
403 
405 
407 
-397 
-409 
278 
308 
338 
368 
-248 
-428 
279 
309 
339 
369 
-249 
-429 
286 
314 
342 
370 
-258 
-426 
287 
315 
343 
371 
-259 
-427 
